32      4       
10      10      10      10      
0       0       0       0       0       7       2       6       11      14      29      30      31      
10      0       1       1       1       1       3       
8       0       4       4       5       1       4       
6       1       6       2       0       3       5       17      28      
1       0       3       3       3       1       7       
5       1       3       3       0       1       7       
7       6       1       0       7       3       8       26      27      
10      6       5       5       0       1       9       
6       3       3       0       3       1       10      
1       5       5       0       4       3       12      23      25      
3       4       0       3       4       3       12      23      25      
9       8       7       3       0       2       13      24      
5       5       5       4       0       3       15      21      22      
10      0       3       5       4       2       16      23      
4       2       3       3       0       1       16      
10      8       5       5       0       1       18      
9       0       8       7       2       2       20      26      
3       2       0       5       3       1       19      
6       2       2       0       4       1       20      
8       0       3       3       4       1       32      
6       4       6       6       0       1       32      
2       3       3       5       0       1       32      
1       8       5       0       5       1       32      
9       4       7       0       2       1       32      
5       4       2       0       7       1       32      
2       1       0       5       5       1       32      
2       0       4       4       4       1       32      
10      0       4       3       3       1       32      
4       3       3       5       0       1       32      
7       0       4       5       5       1       32      
4       0       3       3       5       1       32      
0       0       0       0       0       0       
